; Benchmark for LTL-sketching problem
(set-logic QF_UF)
(set-info :status unknown)
(declare-fun z_0_0 () Bool)
(declare-fun z_0_1 () Bool)
(declare-fun z_0_16 () Bool)
(declare-fun z_0_29 () Bool)
(declare-fun z_0_43 () Bool)
(declare-fun z_0_55 () Bool)
(declare-fun z_0_69 () Bool)
(declare-fun z_0_82 () Bool)
(declare-fun z_0_89 () Bool)
(declare-fun z_0_99 () Bool)
(declare-fun z_0_112 () Bool)
(declare-fun z_1_0 () Bool)
(declare-fun z_1_15 () Bool)
(declare-fun z_1_14 () Bool)
(declare-fun z_1_13 () Bool)
(declare-fun z_1_12 () Bool)
(declare-fun z_1_11 () Bool)
(declare-fun z_1_10 () Bool)
(declare-fun z_1_9 () Bool)
(declare-fun z_1_8 () Bool)
(declare-fun z_1_7 () Bool)
(declare-fun z_1_6 () Bool)
(declare-fun z_1_5 () Bool)
(declare-fun z_1_4 () Bool)
(declare-fun z_1_3 () Bool)
(declare-fun z_1_2 () Bool)
(declare-fun z_1_1 () Bool)
(declare-fun z_0_2 () Bool)
(declare-fun z_0_3 () Bool)
(declare-fun z_0_4 () Bool)
(declare-fun z_0_5 () Bool)
(declare-fun z_0_6 () Bool)
(declare-fun z_0_7 () Bool)
(declare-fun z_0_8 () Bool)
(declare-fun z_0_9 () Bool)
(declare-fun z_0_10 () Bool)
(declare-fun z_0_11 () Bool)
(declare-fun z_0_12 () Bool)
(declare-fun z_0_13 () Bool)
(declare-fun z_0_14 () Bool)
(declare-fun z_0_15 () Bool)
(declare-fun z_1_28 () Bool)
(declare-fun z_1_27 () Bool)
(declare-fun z_1_26 () Bool)
(declare-fun z_1_25 () Bool)
(declare-fun z_1_24 () Bool)
(declare-fun z_1_23 () Bool)
(declare-fun z_1_22 () Bool)
(declare-fun z_1_21 () Bool)
(declare-fun z_1_20 () Bool)
(declare-fun z_1_19 () Bool)
(declare-fun z_1_18 () Bool)
(declare-fun z_1_17 () Bool)
(declare-fun z_1_16 () Bool)
(declare-fun z_0_17 () Bool)
(declare-fun z_0_18 () Bool)
(declare-fun z_0_19 () Bool)
(declare-fun z_0_20 () Bool)
(declare-fun z_0_21 () Bool)
(declare-fun z_0_22 () Bool)
(declare-fun z_0_23 () Bool)
(declare-fun z_0_24 () Bool)
(declare-fun z_0_25 () Bool)
(declare-fun z_0_26 () Bool)
(declare-fun z_0_27 () Bool)
(declare-fun z_0_28 () Bool)
(declare-fun z_1_42 () Bool)
(declare-fun z_1_41 () Bool)
(declare-fun z_1_40 () Bool)
(declare-fun z_1_39 () Bool)
(declare-fun z_1_38 () Bool)
(declare-fun z_1_37 () Bool)
(declare-fun z_1_36 () Bool)
(declare-fun z_1_35 () Bool)
(declare-fun z_1_34 () Bool)
(declare-fun z_1_33 () Bool)
(declare-fun z_1_32 () Bool)
(declare-fun z_1_31 () Bool)
(declare-fun z_1_30 () Bool)
(declare-fun z_1_29 () Bool)
(declare-fun z_0_30 () Bool)
(declare-fun z_0_31 () Bool)
(declare-fun z_0_32 () Bool)
(declare-fun z_0_33 () Bool)
(declare-fun z_0_34 () Bool)
(declare-fun z_0_35 () Bool)
(declare-fun z_0_36 () Bool)
(declare-fun z_0_37 () Bool)
(declare-fun z_0_38 () Bool)
(declare-fun z_0_39 () Bool)
(declare-fun z_0_40 () Bool)
(declare-fun z_0_41 () Bool)
(declare-fun z_0_42 () Bool)
(declare-fun z_1_54 () Bool)
(declare-fun z_1_53 () Bool)
(declare-fun z_1_52 () Bool)
(declare-fun z_1_51 () Bool)
(declare-fun z_1_50 () Bool)
(declare-fun z_1_49 () Bool)
(declare-fun z_1_48 () Bool)
(declare-fun z_1_47 () Bool)
(declare-fun z_1_46 () Bool)
(declare-fun z_1_45 () Bool)
(declare-fun z_1_44 () Bool)
(declare-fun z_1_43 () Bool)
(declare-fun z_0_44 () Bool)
(declare-fun z_0_45 () Bool)
(declare-fun z_0_46 () Bool)
(declare-fun z_0_47 () Bool)
(declare-fun z_0_48 () Bool)
(declare-fun z_0_49 () Bool)
(declare-fun z_0_50 () Bool)
(declare-fun z_0_51 () Bool)
(declare-fun z_0_52 () Bool)
(declare-fun z_0_53 () Bool)
(declare-fun z_0_54 () Bool)
(declare-fun z_1_68 () Bool)
(declare-fun z_1_67 () Bool)
(declare-fun z_1_66 () Bool)
(declare-fun z_1_65 () Bool)
(declare-fun z_1_64 () Bool)
(declare-fun z_1_63 () Bool)
(declare-fun z_1_62 () Bool)
(declare-fun z_1_61 () Bool)
(declare-fun z_1_60 () Bool)
(declare-fun z_1_59 () Bool)
(declare-fun z_1_58 () Bool)
(declare-fun z_1_57 () Bool)
(declare-fun z_1_56 () Bool)
(declare-fun z_1_55 () Bool)
(declare-fun z_0_56 () Bool)
(declare-fun z_0_57 () Bool)
(declare-fun z_0_58 () Bool)
(declare-fun z_0_59 () Bool)
(declare-fun z_0_60 () Bool)
(declare-fun z_0_61 () Bool)
(declare-fun z_0_62 () Bool)
(declare-fun z_0_63 () Bool)
(declare-fun z_0_64 () Bool)
(declare-fun z_0_65 () Bool)
(declare-fun z_0_66 () Bool)
(declare-fun z_0_67 () Bool)
(declare-fun z_0_68 () Bool)
(declare-fun z_1_81 () Bool)
(declare-fun z_1_80 () Bool)
(declare-fun z_1_79 () Bool)
(declare-fun z_1_78 () Bool)
(declare-fun z_1_77 () Bool)
(declare-fun z_1_76 () Bool)
(declare-fun z_1_75 () Bool)
(declare-fun z_1_74 () Bool)
(declare-fun z_1_73 () Bool)
(declare-fun z_1_72 () Bool)
(declare-fun z_1_71 () Bool)
(declare-fun z_1_70 () Bool)
(declare-fun z_1_69 () Bool)
(declare-fun z_0_70 () Bool)
(declare-fun z_0_71 () Bool)
(declare-fun z_0_72 () Bool)
(declare-fun z_0_73 () Bool)
(declare-fun z_0_74 () Bool)
(declare-fun z_0_75 () Bool)
(declare-fun z_0_76 () Bool)
(declare-fun z_0_77 () Bool)
(declare-fun z_0_78 () Bool)
(declare-fun z_0_79 () Bool)
(declare-fun z_0_80 () Bool)
(declare-fun z_0_81 () Bool)
(declare-fun z_1_88 () Bool)
(declare-fun z_1_87 () Bool)
(declare-fun z_1_86 () Bool)
(declare-fun z_1_85 () Bool)
(declare-fun z_1_84 () Bool)
(declare-fun z_1_83 () Bool)
(declare-fun z_1_82 () Bool)
(declare-fun z_0_83 () Bool)
(declare-fun z_0_84 () Bool)
(declare-fun z_0_85 () Bool)
(declare-fun z_0_86 () Bool)
(declare-fun z_0_87 () Bool)
(declare-fun z_0_88 () Bool)
(declare-fun z_1_98 () Bool)
(declare-fun z_1_97 () Bool)
(declare-fun z_1_96 () Bool)
(declare-fun z_1_95 () Bool)
(declare-fun z_1_94 () Bool)
(declare-fun z_1_93 () Bool)
(declare-fun z_1_92 () Bool)
(declare-fun z_1_91 () Bool)
(declare-fun z_1_90 () Bool)
(declare-fun z_1_89 () Bool)
(declare-fun z_0_90 () Bool)
(declare-fun z_0_91 () Bool)
(declare-fun z_0_92 () Bool)
(declare-fun z_0_93 () Bool)
(declare-fun z_0_94 () Bool)
(declare-fun z_0_95 () Bool)
(declare-fun z_0_96 () Bool)
(declare-fun z_0_97 () Bool)
(declare-fun z_0_98 () Bool)
(declare-fun z_1_111 () Bool)
(declare-fun z_1_110 () Bool)
(declare-fun z_1_109 () Bool)
(declare-fun z_1_108 () Bool)
(declare-fun z_1_107 () Bool)
(declare-fun z_1_106 () Bool)
(declare-fun z_1_105 () Bool)
(declare-fun z_1_104 () Bool)
(declare-fun z_1_103 () Bool)
(declare-fun z_1_102 () Bool)
(declare-fun z_1_101 () Bool)
(declare-fun z_1_100 () Bool)
(declare-fun z_1_99 () Bool)
(declare-fun z_0_100 () Bool)
(declare-fun z_0_101 () Bool)
(declare-fun z_0_102 () Bool)
(declare-fun z_0_103 () Bool)
(declare-fun z_0_104 () Bool)
(declare-fun z_0_105 () Bool)
(declare-fun z_0_106 () Bool)
(declare-fun z_0_107 () Bool)
(declare-fun z_0_108 () Bool)
(declare-fun z_0_109 () Bool)
(declare-fun z_0_110 () Bool)
(declare-fun z_0_111 () Bool)
(declare-fun z_1_124 () Bool)
(declare-fun z_1_123 () Bool)
(declare-fun z_1_122 () Bool)
(declare-fun z_1_121 () Bool)
(declare-fun z_1_120 () Bool)
(declare-fun z_1_119 () Bool)
(declare-fun z_1_118 () Bool)
(declare-fun z_1_117 () Bool)
(declare-fun z_1_116 () Bool)
(declare-fun z_1_115 () Bool)
(declare-fun z_1_114 () Bool)
(declare-fun z_1_113 () Bool)
(declare-fun z_1_112 () Bool)
(declare-fun z_0_113 () Bool)
(declare-fun z_0_114 () Bool)
(declare-fun z_0_115 () Bool)
(declare-fun z_0_116 () Bool)
(declare-fun z_0_117 () Bool)
(declare-fun z_0_118 () Bool)
(declare-fun z_0_119 () Bool)
(declare-fun z_0_120 () Bool)
(declare-fun z_0_121 () Bool)
(declare-fun z_0_122 () Bool)
(declare-fun z_0_123 () Bool)
(declare-fun z_0_124 () Bool)
(declare-fun z_3_0 () Bool)
(declare-fun z_3_1 () Bool)
(declare-fun z_3_2 () Bool)
(declare-fun z_3_3 () Bool)
(declare-fun z_3_4 () Bool)
(declare-fun z_3_5 () Bool)
(declare-fun z_3_6 () Bool)
(declare-fun z_3_7 () Bool)
(declare-fun z_3_8 () Bool)
(declare-fun z_3_9 () Bool)
(declare-fun z_3_10 () Bool)
(declare-fun z_3_11 () Bool)
(declare-fun z_3_12 () Bool)
(declare-fun z_3_13 () Bool)
(declare-fun z_3_14 () Bool)
(declare-fun z_3_15 () Bool)
(declare-fun z_3_16 () Bool)
(declare-fun z_3_17 () Bool)
(declare-fun z_3_18 () Bool)
(declare-fun z_3_19 () Bool)
(declare-fun z_3_20 () Bool)
(declare-fun z_3_21 () Bool)
(declare-fun z_3_22 () Bool)
(declare-fun z_3_23 () Bool)
(declare-fun z_3_24 () Bool)
(declare-fun z_3_25 () Bool)
(declare-fun z_3_26 () Bool)
(declare-fun z_3_27 () Bool)
(declare-fun z_3_28 () Bool)
(declare-fun z_3_29 () Bool)
(declare-fun z_3_30 () Bool)
(declare-fun z_3_31 () Bool)
(declare-fun z_3_32 () Bool)
(declare-fun z_3_33 () Bool)
(declare-fun z_3_34 () Bool)
(declare-fun z_3_35 () Bool)
(declare-fun z_3_36 () Bool)
(declare-fun z_3_37 () Bool)
(declare-fun z_3_38 () Bool)
(declare-fun z_3_39 () Bool)
(declare-fun z_3_40 () Bool)
(declare-fun z_3_41 () Bool)
(declare-fun z_3_42 () Bool)
(declare-fun z_3_43 () Bool)
(declare-fun z_3_44 () Bool)
(declare-fun z_3_45 () Bool)
(declare-fun z_3_46 () Bool)
(declare-fun z_3_47 () Bool)
(declare-fun z_3_48 () Bool)
(declare-fun z_3_49 () Bool)
(declare-fun z_3_50 () Bool)
(declare-fun z_3_51 () Bool)
(declare-fun z_3_52 () Bool)
(declare-fun z_3_53 () Bool)
(declare-fun z_3_54 () Bool)
(declare-fun z_3_55 () Bool)
(declare-fun z_3_56 () Bool)
(declare-fun z_3_57 () Bool)
(declare-fun z_3_58 () Bool)
(declare-fun z_3_59 () Bool)
(declare-fun z_3_60 () Bool)
(declare-fun z_3_61 () Bool)
(declare-fun z_3_62 () Bool)
(declare-fun z_3_63 () Bool)
(declare-fun z_3_64 () Bool)
(declare-fun z_3_65 () Bool)
(declare-fun z_3_66 () Bool)
(declare-fun z_3_67 () Bool)
(declare-fun z_3_68 () Bool)
(declare-fun z_3_69 () Bool)
(declare-fun z_3_70 () Bool)
(declare-fun z_3_71 () Bool)
(declare-fun z_3_72 () Bool)
(declare-fun z_3_73 () Bool)
(declare-fun z_3_74 () Bool)
(declare-fun z_3_75 () Bool)
(declare-fun z_3_76 () Bool)
(declare-fun z_3_77 () Bool)
(declare-fun z_3_78 () Bool)
(declare-fun z_3_79 () Bool)
(declare-fun z_3_80 () Bool)
(declare-fun z_3_81 () Bool)
(declare-fun z_3_82 () Bool)
(declare-fun z_3_83 () Bool)
(declare-fun z_3_84 () Bool)
(declare-fun z_3_85 () Bool)
(declare-fun z_3_86 () Bool)
(declare-fun z_3_87 () Bool)
(declare-fun z_3_88 () Bool)
(declare-fun z_3_89 () Bool)
(declare-fun z_3_90 () Bool)
(declare-fun z_3_91 () Bool)
(declare-fun z_3_92 () Bool)
(declare-fun z_3_93 () Bool)
(declare-fun z_3_94 () Bool)
(declare-fun z_3_95 () Bool)
(declare-fun z_3_96 () Bool)
(declare-fun z_3_97 () Bool)
(declare-fun z_3_98 () Bool)
(declare-fun z_3_99 () Bool)
(declare-fun z_3_100 () Bool)
(declare-fun z_3_101 () Bool)
(declare-fun z_3_102 () Bool)
(declare-fun z_3_103 () Bool)
(declare-fun z_3_104 () Bool)
(declare-fun z_3_105 () Bool)
(declare-fun z_3_106 () Bool)
(declare-fun z_3_107 () Bool)
(declare-fun z_3_108 () Bool)
(declare-fun z_3_109 () Bool)
(declare-fun z_3_110 () Bool)
(declare-fun z_3_111 () Bool)
(declare-fun z_3_112 () Bool)
(declare-fun z_3_113 () Bool)
(declare-fun z_3_114 () Bool)
(declare-fun z_3_115 () Bool)
(declare-fun z_3_116 () Bool)
(declare-fun z_3_117 () Bool)
(declare-fun z_3_118 () Bool)
(declare-fun z_3_119 () Bool)
(declare-fun z_3_120 () Bool)
(declare-fun z_3_121 () Bool)
(declare-fun z_3_122 () Bool)
(declare-fun z_3_123 () Bool)
(declare-fun z_3_124 () Bool)
(declare-fun x_3_p () Bool)
(declare-fun x_3_-> () Bool)
(declare-fun x_3_U () Bool)
(declare-fun x_3_v () Bool)
(declare-fun x_3_& () Bool)
(declare-fun x_3_X () Bool)
(declare-fun x_3_! () Bool)
(declare-fun x_3_F () Bool)
(declare-fun x_3_G () Bool)
(assert
 z_0_0)
(assert
 (not z_0_1))
(assert
 (not z_0_16))
(assert
 (not z_0_29))
(assert
 (not z_0_43))
(assert
 (not z_0_55))
(assert
 (not z_0_69))
(assert
 (not z_0_82))
(assert
 (not z_0_89))
(assert
 (not z_0_99))
(assert
 (not z_0_112))
(assert
 (= z_0_0 (and z_1_0)))
(assert
 (let (($x44 (and z_1_1 z_1_2 z_1_3 z_1_4 z_1_5 z_1_6 z_1_7 z_1_8 z_1_9 z_1_10 z_1_11 z_1_12 z_1_13 z_1_14 z_1_15)))
 (= z_0_1 $x44)))
(assert
 (let (($x47 (and z_1_2 z_1_3 z_1_4 z_1_5 z_1_6 z_1_7 z_1_8 z_1_9 z_1_10 z_1_11 z_1_12 z_1_13 z_1_14 z_1_15)))
 (= z_0_2 $x47)))
(assert
 (let (($x50 (and z_1_3 z_1_4 z_1_5 z_1_6 z_1_7 z_1_8 z_1_9 z_1_10 z_1_11 z_1_12 z_1_13 z_1_14 z_1_15)))
 (= z_0_3 $x50)))
(assert
 (let (($x53 (and z_1_4 z_1_5 z_1_6 z_1_7 z_1_8 z_1_9 z_1_10 z_1_11 z_1_12 z_1_13 z_1_14 z_1_15)))
 (= z_0_4 $x53)))
(assert
 (let (($x56 (and z_1_5 z_1_6 z_1_7 z_1_8 z_1_9 z_1_10 z_1_11 z_1_12 z_1_13 z_1_14 z_1_15)))
 (= z_0_5 $x56)))
(assert
 (let (($x59 (and z_1_6 z_1_7 z_1_8 z_1_9 z_1_10 z_1_11 z_1_12 z_1_13 z_1_14 z_1_15)))
 (= z_0_6 $x59)))
(assert
 (let (($x62 (and z_1_7 z_1_8 z_1_9 z_1_10 z_1_11 z_1_12 z_1_13 z_1_14 z_1_15)))
 (= z_0_7 $x62)))
(assert
 (let (($x65 (and z_1_8 z_1_9 z_1_10 z_1_11 z_1_12 z_1_13 z_1_14 z_1_15)))
 (= z_0_8 $x65)))
(assert
 (let (($x68 (and z_1_9 z_1_10 z_1_11 z_1_12 z_1_13 z_1_14 z_1_15 z_1_8)))
 (= z_0_9 $x68)))
(assert
 (let (($x71 (and z_1_10 z_1_11 z_1_12 z_1_13 z_1_14 z_1_15 z_1_8 z_1_9)))
 (= z_0_10 $x71)))
(assert
 (let (($x74 (and z_1_11 z_1_12 z_1_13 z_1_14 z_1_15 z_1_8 z_1_9 z_1_10)))
 (= z_0_11 $x74)))
(assert
 (let (($x77 (and z_1_12 z_1_13 z_1_14 z_1_15 z_1_8 z_1_9 z_1_10 z_1_11)))
 (= z_0_12 $x77)))
(assert
 (let (($x80 (and z_1_13 z_1_14 z_1_15 z_1_8 z_1_9 z_1_10 z_1_11 z_1_12)))
 (= z_0_13 $x80)))
(assert
 (let (($x83 (and z_1_14 z_1_15 z_1_8 z_1_9 z_1_10 z_1_11 z_1_12 z_1_13)))
 (= z_0_14 $x83)))
(assert
 (let (($x86 (and z_1_15 z_1_8 z_1_9 z_1_10 z_1_11 z_1_12 z_1_13 z_1_14)))
 (= z_0_15 $x86)))
(assert
 (let (($x102 (and z_1_16 z_1_17 z_1_18 z_1_19 z_1_20 z_1_21 z_1_22 z_1_23 z_1_24 z_1_25 z_1_26 z_1_27 z_1_28)))
 (= z_0_16 $x102)))
(assert
 (let (($x105 (and z_1_17 z_1_18 z_1_19 z_1_20 z_1_21 z_1_22 z_1_23 z_1_24 z_1_25 z_1_26 z_1_27 z_1_28)))
 (= z_0_17 $x105)))
(assert
 (let (($x108 (and z_1_18 z_1_19 z_1_20 z_1_21 z_1_22 z_1_23 z_1_24 z_1_25 z_1_26 z_1_27 z_1_28)))
 (= z_0_18 $x108)))
(assert
 (let (($x111 (and z_1_19 z_1_20 z_1_21 z_1_22 z_1_23 z_1_24 z_1_25 z_1_26 z_1_27 z_1_28)))
 (= z_0_19 $x111)))
(assert
 (let (($x114 (and z_1_20 z_1_21 z_1_22 z_1_23 z_1_24 z_1_25 z_1_26 z_1_27 z_1_28)))
 (= z_0_20 $x114)))
(assert
 (let (($x117 (and z_1_21 z_1_22 z_1_23 z_1_24 z_1_25 z_1_26 z_1_27 z_1_28)))
 (= z_0_21 $x117)))
(assert
 (let (($x120 (and z_1_22 z_1_23 z_1_24 z_1_25 z_1_26 z_1_27 z_1_28 z_1_21)))
 (= z_0_22 $x120)))
(assert
 (let (($x123 (and z_1_23 z_1_24 z_1_25 z_1_26 z_1_27 z_1_28 z_1_21 z_1_22)))
 (= z_0_23 $x123)))
(assert
 (let (($x126 (and z_1_24 z_1_25 z_1_26 z_1_27 z_1_28 z_1_21 z_1_22 z_1_23)))
 (= z_0_24 $x126)))
(assert
 (let (($x129 (and z_1_25 z_1_26 z_1_27 z_1_28 z_1_21 z_1_22 z_1_23 z_1_24)))
 (= z_0_25 $x129)))
(assert
 (let (($x132 (and z_1_26 z_1_27 z_1_28 z_1_21 z_1_22 z_1_23 z_1_24 z_1_25)))
 (= z_0_26 $x132)))
(assert
 (let (($x135 (and z_1_27 z_1_28 z_1_21 z_1_22 z_1_23 z_1_24 z_1_25 z_1_26)))
 (= z_0_27 $x135)))
(assert
 (let (($x138 (and z_1_28 z_1_21 z_1_22 z_1_23 z_1_24 z_1_25 z_1_26 z_1_27)))
 (= z_0_28 $x138)))
(assert
 (let (($x155 (and z_1_29 z_1_30 z_1_31 z_1_32 z_1_33 z_1_34 z_1_35 z_1_36 z_1_37 z_1_38 z_1_39 z_1_40 z_1_41 z_1_42)))
 (= z_0_29 $x155)))
(assert
 (let (($x158 (and z_1_30 z_1_31 z_1_32 z_1_33 z_1_34 z_1_35 z_1_36 z_1_37 z_1_38 z_1_39 z_1_40 z_1_41 z_1_42)))
 (= z_0_30 $x158)))
(assert
 (let (($x161 (and z_1_31 z_1_32 z_1_33 z_1_34 z_1_35 z_1_36 z_1_37 z_1_38 z_1_39 z_1_40 z_1_41 z_1_42)))
 (= z_0_31 $x161)))
(assert
 (let (($x164 (and z_1_32 z_1_33 z_1_34 z_1_35 z_1_36 z_1_37 z_1_38 z_1_39 z_1_40 z_1_41 z_1_42)))
 (= z_0_32 $x164)))
(assert
 (let (($x167 (and z_1_33 z_1_34 z_1_35 z_1_36 z_1_37 z_1_38 z_1_39 z_1_40 z_1_41 z_1_42)))
 (= z_0_33 $x167)))
(assert
 (let (($x170 (and z_1_34 z_1_35 z_1_36 z_1_37 z_1_38 z_1_39 z_1_40 z_1_41 z_1_42)))
 (= z_0_34 $x170)))
(assert
 (let (($x173 (and z_1_35 z_1_36 z_1_37 z_1_38 z_1_39 z_1_40 z_1_41 z_1_42)))
 (= z_0_35 $x173)))
(assert
 (= z_0_36 (and z_1_36 z_1_37 z_1_38 z_1_39 z_1_40 z_1_41 z_1_42)))
(assert
 (= z_0_37 (and z_1_37 z_1_38 z_1_39 z_1_40 z_1_41 z_1_42)))
(assert
 (= z_0_38 (and z_1_38 z_1_39 z_1_40 z_1_41 z_1_42 z_1_37)))
(assert
 (= z_0_39 (and z_1_39 z_1_40 z_1_41 z_1_42 z_1_37 z_1_38)))
(assert
 (= z_0_40 (and z_1_40 z_1_41 z_1_42 z_1_37 z_1_38 z_1_39)))
(assert
 (= z_0_41 (and z_1_41 z_1_42 z_1_37 z_1_38 z_1_39 z_1_40)))
(assert
 (= z_0_42 (and z_1_42 z_1_37 z_1_38 z_1_39 z_1_40 z_1_41)))
(assert
 (let (($x209 (and z_1_43 z_1_44 z_1_45 z_1_46 z_1_47 z_1_48 z_1_49 z_1_50 z_1_51 z_1_52 z_1_53 z_1_54)))
 (= z_0_43 $x209)))
(assert
 (let (($x212 (and z_1_44 z_1_45 z_1_46 z_1_47 z_1_48 z_1_49 z_1_50 z_1_51 z_1_52 z_1_53 z_1_54)))
 (= z_0_44 $x212)))
(assert
 (let (($x215 (and z_1_45 z_1_46 z_1_47 z_1_48 z_1_49 z_1_50 z_1_51 z_1_52 z_1_53 z_1_54)))
 (= z_0_45 $x215)))
(assert
 (let (($x218 (and z_1_46 z_1_47 z_1_48 z_1_49 z_1_50 z_1_51 z_1_52 z_1_53 z_1_54)))
 (= z_0_46 $x218)))
(assert
 (let (($x221 (and z_1_47 z_1_48 z_1_49 z_1_50 z_1_51 z_1_52 z_1_53 z_1_54)))
 (= z_0_47 $x221)))
(assert
 (= z_0_48 (and z_1_48 z_1_49 z_1_50 z_1_51 z_1_52 z_1_53 z_1_54)))
(assert
 (= z_0_49 (and z_1_49 z_1_50 z_1_51 z_1_52 z_1_53 z_1_54 z_1_48)))
(assert
 (= z_0_50 (and z_1_50 z_1_51 z_1_52 z_1_53 z_1_54 z_1_48 z_1_49)))
(assert
 (= z_0_51 (and z_1_51 z_1_52 z_1_53 z_1_54 z_1_48 z_1_49 z_1_50)))
(assert
 (= z_0_52 (and z_1_52 z_1_53 z_1_54 z_1_48 z_1_49 z_1_50 z_1_51)))
(assert
 (= z_0_53 (and z_1_53 z_1_54 z_1_48 z_1_49 z_1_50 z_1_51 z_1_52)))
(assert
 (= z_0_54 (and z_1_54 z_1_48 z_1_49 z_1_50 z_1_51 z_1_52 z_1_53)))
(assert
 (let (($x259 (and z_1_55 z_1_56 z_1_57 z_1_58 z_1_59 z_1_60 z_1_61 z_1_62 z_1_63 z_1_64 z_1_65 z_1_66 z_1_67 z_1_68)))
 (= z_0_55 $x259)))
(assert
 (let (($x262 (and z_1_56 z_1_57 z_1_58 z_1_59 z_1_60 z_1_61 z_1_62 z_1_63 z_1_64 z_1_65 z_1_66 z_1_67 z_1_68)))
 (= z_0_56 $x262)))
(assert
 (let (($x265 (and z_1_57 z_1_58 z_1_59 z_1_60 z_1_61 z_1_62 z_1_63 z_1_64 z_1_65 z_1_66 z_1_67 z_1_68)))
 (= z_0_57 $x265)))
(assert
 (let (($x268 (and z_1_58 z_1_59 z_1_60 z_1_61 z_1_62 z_1_63 z_1_64 z_1_65 z_1_66 z_1_67 z_1_68)))
 (= z_0_58 $x268)))
(assert
 (let (($x271 (and z_1_59 z_1_60 z_1_61 z_1_62 z_1_63 z_1_64 z_1_65 z_1_66 z_1_67 z_1_68)))
 (= z_0_59 $x271)))
(assert
 (let (($x274 (and z_1_60 z_1_61 z_1_62 z_1_63 z_1_64 z_1_65 z_1_66 z_1_67 z_1_68)))
 (= z_0_60 $x274)))
(assert
 (let (($x277 (and z_1_61 z_1_62 z_1_63 z_1_64 z_1_65 z_1_66 z_1_67 z_1_68)))
 (= z_0_61 $x277)))
(assert
 (let (($x280 (and z_1_62 z_1_63 z_1_64 z_1_65 z_1_66 z_1_67 z_1_68 z_1_61)))
 (= z_0_62 $x280)))
(assert
 (let (($x283 (and z_1_63 z_1_64 z_1_65 z_1_66 z_1_67 z_1_68 z_1_61 z_1_62)))
 (= z_0_63 $x283)))
(assert
 (let (($x286 (and z_1_64 z_1_65 z_1_66 z_1_67 z_1_68 z_1_61 z_1_62 z_1_63)))
 (= z_0_64 $x286)))
(assert
 (let (($x289 (and z_1_65 z_1_66 z_1_67 z_1_68 z_1_61 z_1_62 z_1_63 z_1_64)))
 (= z_0_65 $x289)))
(assert
 (let (($x292 (and z_1_66 z_1_67 z_1_68 z_1_61 z_1_62 z_1_63 z_1_64 z_1_65)))
 (= z_0_66 $x292)))
(assert
 (let (($x295 (and z_1_67 z_1_68 z_1_61 z_1_62 z_1_63 z_1_64 z_1_65 z_1_66)))
 (= z_0_67 $x295)))
(assert
 (let (($x298 (and z_1_68 z_1_61 z_1_62 z_1_63 z_1_64 z_1_65 z_1_66 z_1_67)))
 (= z_0_68 $x298)))
(assert
 (let (($x314 (and z_1_69 z_1_70 z_1_71 z_1_72 z_1_73 z_1_74 z_1_75 z_1_76 z_1_77 z_1_78 z_1_79 z_1_80 z_1_81)))
 (= z_0_69 $x314)))
(assert
 (let (($x317 (and z_1_70 z_1_71 z_1_72 z_1_73 z_1_74 z_1_75 z_1_76 z_1_77 z_1_78 z_1_79 z_1_80 z_1_81)))
 (= z_0_70 $x317)))
(assert
 (let (($x320 (and z_1_71 z_1_72 z_1_73 z_1_74 z_1_75 z_1_76 z_1_77 z_1_78 z_1_79 z_1_80 z_1_81)))
 (= z_0_71 $x320)))
(assert
 (let (($x323 (and z_1_72 z_1_73 z_1_74 z_1_75 z_1_76 z_1_77 z_1_78 z_1_79 z_1_80 z_1_81)))
 (= z_0_72 $x323)))
(assert
 (let (($x326 (and z_1_73 z_1_74 z_1_75 z_1_76 z_1_77 z_1_78 z_1_79 z_1_80 z_1_81)))
 (= z_0_73 $x326)))
(assert
 (let (($x329 (and z_1_74 z_1_75 z_1_76 z_1_77 z_1_78 z_1_79 z_1_80 z_1_81)))
 (= z_0_74 $x329)))
(assert
 (= z_0_75 (and z_1_75 z_1_76 z_1_77 z_1_78 z_1_79 z_1_80 z_1_81)))
(assert
 (= z_0_76 (and z_1_76 z_1_77 z_1_78 z_1_79 z_1_80 z_1_81 z_1_75)))
(assert
 (= z_0_77 (and z_1_77 z_1_78 z_1_79 z_1_80 z_1_81 z_1_75 z_1_76)))
(assert
 (= z_0_78 (and z_1_78 z_1_79 z_1_80 z_1_81 z_1_75 z_1_76 z_1_77)))
(assert
 (= z_0_79 (and z_1_79 z_1_80 z_1_81 z_1_75 z_1_76 z_1_77 z_1_78)))
(assert
 (= z_0_80 (and z_1_80 z_1_81 z_1_75 z_1_76 z_1_77 z_1_78 z_1_79)))
(assert
 (= z_0_81 (and z_1_81 z_1_75 z_1_76 z_1_77 z_1_78 z_1_79 z_1_80)))
(assert
 (let (($x360 (and z_1_82 z_1_83 z_1_84 z_1_85 z_1_86 z_1_87 z_1_88 z_1_28 z_1_21 z_1_22 z_1_23 z_1_24 z_1_25 z_1_26 z_1_27)))
 (= z_0_82 $x360)))
(assert
 (let (($x363 (and z_1_83 z_1_84 z_1_85 z_1_86 z_1_87 z_1_88 z_1_28 z_1_21 z_1_22 z_1_23 z_1_24 z_1_25 z_1_26 z_1_27)))
 (= z_0_83 $x363)))
(assert
 (let (($x366 (and z_1_84 z_1_85 z_1_86 z_1_87 z_1_88 z_1_28 z_1_21 z_1_22 z_1_23 z_1_24 z_1_25 z_1_26 z_1_27)))
 (= z_0_84 $x366)))
(assert
 (let (($x369 (and z_1_85 z_1_86 z_1_87 z_1_88 z_1_28 z_1_21 z_1_22 z_1_23 z_1_24 z_1_25 z_1_26 z_1_27)))
 (= z_0_85 $x369)))
(assert
 (let (($x372 (and z_1_86 z_1_87 z_1_88 z_1_28 z_1_21 z_1_22 z_1_23 z_1_24 z_1_25 z_1_26 z_1_27)))
 (= z_0_86 $x372)))
(assert
 (let (($x375 (and z_1_87 z_1_88 z_1_28 z_1_21 z_1_22 z_1_23 z_1_24 z_1_25 z_1_26 z_1_27)))
 (= z_0_87 $x375)))
(assert
 (let (($x378 (and z_1_88 z_1_28 z_1_21 z_1_22 z_1_23 z_1_24 z_1_25 z_1_26 z_1_27)))
 (= z_0_88 $x378)))
(assert
 (let (($x391 (and z_1_89 z_1_90 z_1_91 z_1_92 z_1_93 z_1_94 z_1_95 z_1_96 z_1_97 z_1_98)))
 (= z_0_89 $x391)))
(assert
 (let (($x394 (and z_1_90 z_1_91 z_1_92 z_1_93 z_1_94 z_1_95 z_1_96 z_1_97 z_1_98)))
 (= z_0_90 $x394)))
(assert
 (let (($x397 (and z_1_91 z_1_92 z_1_93 z_1_94 z_1_95 z_1_96 z_1_97 z_1_98)))
 (= z_0_91 $x397)))
(assert
 (= z_0_92 (and z_1_92 z_1_93 z_1_94 z_1_95 z_1_96 z_1_97 z_1_98)))
(assert
 (= z_0_93 (and z_1_93 z_1_94 z_1_95 z_1_96 z_1_97 z_1_98)))
(assert
 (= z_0_94 (and z_1_94 z_1_95 z_1_96 z_1_97 z_1_98 z_1_93)))
(assert
 (= z_0_95 (and z_1_95 z_1_96 z_1_97 z_1_98 z_1_93 z_1_94)))
(assert
 (= z_0_96 (and z_1_96 z_1_97 z_1_98 z_1_93 z_1_94 z_1_95)))
(assert
 (= z_0_97 (and z_1_97 z_1_98 z_1_93 z_1_94 z_1_95 z_1_96)))
(assert
 (= z_0_98 (and z_1_98 z_1_93 z_1_94 z_1_95 z_1_96 z_1_97)))
(assert
 (let (($x434 (and z_1_99 z_1_100 z_1_101 z_1_102 z_1_103 z_1_104 z_1_105 z_1_106 z_1_107 z_1_108 z_1_109 z_1_110 z_1_111)))
 (= z_0_99 $x434)))
(assert
 (let (($x437 (and z_1_100 z_1_101 z_1_102 z_1_103 z_1_104 z_1_105 z_1_106 z_1_107 z_1_108 z_1_109 z_1_110 z_1_111)))
 (= z_0_100 $x437)))
(assert
 (let (($x440 (and z_1_101 z_1_102 z_1_103 z_1_104 z_1_105 z_1_106 z_1_107 z_1_108 z_1_109 z_1_110 z_1_111)))
 (= z_0_101 $x440)))
(assert
 (let (($x443 (and z_1_102 z_1_103 z_1_104 z_1_105 z_1_106 z_1_107 z_1_108 z_1_109 z_1_110 z_1_111)))
 (= z_0_102 $x443)))
(assert
 (let (($x446 (and z_1_103 z_1_104 z_1_105 z_1_106 z_1_107 z_1_108 z_1_109 z_1_110 z_1_111)))
 (= z_0_103 $x446)))
(assert
 (let (($x449 (and z_1_104 z_1_105 z_1_106 z_1_107 z_1_108 z_1_109 z_1_110 z_1_111)))
 (= z_0_104 $x449)))
(assert
 (let (($x452 (and z_1_105 z_1_106 z_1_107 z_1_108 z_1_109 z_1_110 z_1_111 z_1_104)))
 (= z_0_105 $x452)))
(assert
 (let (($x455 (and z_1_106 z_1_107 z_1_108 z_1_109 z_1_110 z_1_111 z_1_104 z_1_105)))
 (= z_0_106 $x455)))
(assert
 (let (($x458 (and z_1_107 z_1_108 z_1_109 z_1_110 z_1_111 z_1_104 z_1_105 z_1_106)))
 (= z_0_107 $x458)))
(assert
 (let (($x461 (and z_1_108 z_1_109 z_1_110 z_1_111 z_1_104 z_1_105 z_1_106 z_1_107)))
 (= z_0_108 $x461)))
(assert
 (let (($x464 (and z_1_109 z_1_110 z_1_111 z_1_104 z_1_105 z_1_106 z_1_107 z_1_108)))
 (= z_0_109 $x464)))
(assert
 (let (($x467 (and z_1_110 z_1_111 z_1_104 z_1_105 z_1_106 z_1_107 z_1_108 z_1_109)))
 (= z_0_110 $x467)))
(assert
 (let (($x470 (and z_1_111 z_1_104 z_1_105 z_1_106 z_1_107 z_1_108 z_1_109 z_1_110)))
 (= z_0_111 $x470)))
(assert
 (let (($x486 (and z_1_112 z_1_113 z_1_114 z_1_115 z_1_116 z_1_117 z_1_118 z_1_119 z_1_120 z_1_121 z_1_122 z_1_123 z_1_124)))
 (= z_0_112 $x486)))
(assert
 (let (($x489 (and z_1_113 z_1_114 z_1_115 z_1_116 z_1_117 z_1_118 z_1_119 z_1_120 z_1_121 z_1_122 z_1_123 z_1_124)))
 (= z_0_113 $x489)))
(assert
 (let (($x492 (and z_1_114 z_1_115 z_1_116 z_1_117 z_1_118 z_1_119 z_1_120 z_1_121 z_1_122 z_1_123 z_1_124)))
 (= z_0_114 $x492)))
(assert
 (let (($x495 (and z_1_115 z_1_116 z_1_117 z_1_118 z_1_119 z_1_120 z_1_121 z_1_122 z_1_123 z_1_124)))
 (= z_0_115 $x495)))
(assert
 (let (($x498 (and z_1_116 z_1_117 z_1_118 z_1_119 z_1_120 z_1_121 z_1_122 z_1_123 z_1_124)))
 (= z_0_116 $x498)))
(assert
 (let (($x501 (and z_1_117 z_1_118 z_1_119 z_1_120 z_1_121 z_1_122 z_1_123 z_1_124)))
 (= z_0_117 $x501)))
(assert
 (let (($x504 (and z_1_118 z_1_119 z_1_120 z_1_121 z_1_122 z_1_123 z_1_124)))
 (= z_0_118 $x504)))
(assert
 (let (($x507 (and z_1_119 z_1_120 z_1_121 z_1_122 z_1_123 z_1_124 z_1_118)))
 (= z_0_119 $x507)))
(assert
 (let (($x510 (and z_1_120 z_1_121 z_1_122 z_1_123 z_1_124 z_1_118 z_1_119)))
 (= z_0_120 $x510)))
(assert
 (let (($x513 (and z_1_121 z_1_122 z_1_123 z_1_124 z_1_118 z_1_119 z_1_120)))
 (= z_0_121 $x513)))
(assert
 (let (($x516 (and z_1_122 z_1_123 z_1_124 z_1_118 z_1_119 z_1_120 z_1_121)))
 (= z_0_122 $x516)))
(assert
 (let (($x519 (and z_1_123 z_1_124 z_1_118 z_1_119 z_1_120 z_1_121 z_1_122)))
 (= z_0_123 $x519)))
(assert
 (let (($x522 (and z_1_124 z_1_118 z_1_119 z_1_120 z_1_121 z_1_122 z_1_123)))
 (= z_0_124 $x522)))
(assert
 (let (($x4134 (not z_3_0)))
 (= z_1_0 $x4134)))
(assert
 (= z_1_1 (not z_3_1)))
(assert
 (= z_1_2 (not z_3_2)))
(assert
 (let (($x4149 (not z_3_3)))
 (= z_1_3 $x4149)))
(assert
 (let (($x4154 (not z_3_4)))
 (= z_1_4 $x4154)))
(assert
 (let (($x4159 (not z_3_5)))
 (= z_1_5 $x4159)))
(assert
 (= z_1_6 (not z_3_6)))
(assert
 (let (($x4169 (not z_3_7)))
 (= z_1_7 $x4169)))
(assert
 (let (($x4174 (not z_3_8)))
 (= z_1_8 $x4174)))
(assert
 (= z_1_9 (not z_3_9)))
(assert
 (let (($x4184 (not z_3_10)))
 (= z_1_10 $x4184)))
(assert
 (let (($x4189 (not z_3_11)))
 (= z_1_11 $x4189)))
(assert
 (= z_1_12 (not z_3_12)))
(assert
 (= z_1_13 (not z_3_13)))
(assert
 (let (($x4204 (not z_3_14)))
 (= z_1_14 $x4204)))
(assert
 (= z_1_15 (not z_3_15)))
(assert
 (let (($x4214 (not z_3_16)))
 (= z_1_16 $x4214)))
(assert
 (let (($x4219 (not z_3_17)))
 (= z_1_17 $x4219)))
(assert
 (let (($x4224 (not z_3_18)))
 (= z_1_18 $x4224)))
(assert
 (= z_1_19 (not z_3_19)))
(assert
 (= z_1_20 (not z_3_20)))
(assert
 (= z_1_21 (not z_3_21)))
(assert
 (= z_1_22 (not z_3_22)))
(assert
 (= z_1_23 (not z_3_23)))
(assert
 (= z_1_24 (not z_3_24)))
(assert
 (let (($x4259 (not z_3_25)))
 (= z_1_25 $x4259)))
(assert
 (let (($x4264 (not z_3_26)))
 (= z_1_26 $x4264)))
(assert
 (= z_1_27 (not z_3_27)))
(assert
 (let (($x4274 (not z_3_28)))
 (= z_1_28 $x4274)))
(assert
 (let (($x4279 (not z_3_29)))
 (= z_1_29 $x4279)))
(assert
 (= z_1_30 (not z_3_30)))
(assert
 (let (($x4289 (not z_3_31)))
 (= z_1_31 $x4289)))
(assert
 (let (($x4294 (not z_3_32)))
 (= z_1_32 $x4294)))
(assert
 (= z_1_33 (not z_3_33)))
(assert
 (= z_1_34 (not z_3_34)))
(assert
 (let (($x4309 (not z_3_35)))
 (= z_1_35 $x4309)))
(assert
 (= z_1_36 (not z_3_36)))
(assert
 (= z_1_37 (not z_3_37)))
(assert
 (= z_1_38 (not z_3_38)))
(assert
 (let (($x4329 (not z_3_39)))
 (= z_1_39 $x4329)))
(assert
 (let (($x4334 (not z_3_40)))
 (= z_1_40 $x4334)))
(assert
 (let (($x4339 (not z_3_41)))
 (= z_1_41 $x4339)))
(assert
 (let (($x4344 (not z_3_42)))
 (= z_1_42 $x4344)))
(assert
 (let (($x4349 (not z_3_43)))
 (= z_1_43 $x4349)))
(assert
 (let (($x4354 (not z_3_44)))
 (= z_1_44 $x4354)))
(assert
 (let (($x4359 (not z_3_45)))
 (= z_1_45 $x4359)))
(assert
 (= z_1_46 (not z_3_46)))
(assert
 (= z_1_47 (not z_3_47)))
(assert
 (let (($x4374 (not z_3_48)))
 (= z_1_48 $x4374)))
(assert
 (= z_1_49 (not z_3_49)))
(assert
 (= z_1_50 (not z_3_50)))
(assert
 (let (($x4389 (not z_3_51)))
 (= z_1_51 $x4389)))
(assert
 (let (($x4394 (not z_3_52)))
 (= z_1_52 $x4394)))
(assert
 (= z_1_53 (not z_3_53)))
(assert
 (let (($x4404 (not z_3_54)))
 (= z_1_54 $x4404)))
(assert
 (let (($x4409 (not z_3_55)))
 (= z_1_55 $x4409)))
(assert
 (let (($x4414 (not z_3_56)))
 (= z_1_56 $x4414)))
(assert
 (let (($x4419 (not z_3_57)))
 (= z_1_57 $x4419)))
(assert
 (let (($x4424 (not z_3_58)))
 (= z_1_58 $x4424)))
(assert
 (= z_1_59 (not z_3_59)))
(assert
 (= z_1_60 (not z_3_60)))
(assert
 (let (($x4439 (not z_3_61)))
 (= z_1_61 $x4439)))
(assert
 (= z_1_62 (not z_3_62)))
(assert
 (let (($x4449 (not z_3_63)))
 (= z_1_63 $x4449)))
(assert
 (= z_1_64 (not z_3_64)))
(assert
 (= z_1_65 (not z_3_65)))
(assert
 (= z_1_66 (not z_3_66)))
(assert
 (let (($x4469 (not z_3_67)))
 (= z_1_67 $x4469)))
(assert
 (let (($x4474 (not z_3_68)))
 (= z_1_68 $x4474)))
(assert
 (= z_1_69 (not z_3_69)))
(assert
 (= z_1_70 (not z_3_70)))
(assert
 (= z_1_71 (not z_3_71)))
(assert
 (let (($x4494 (not z_3_72)))
 (= z_1_72 $x4494)))
(assert
 (let (($x4499 (not z_3_73)))
 (= z_1_73 $x4499)))
(assert
 (= z_1_74 (not z_3_74)))
(assert
 (= z_1_75 (not z_3_75)))
(assert
 (let (($x4514 (not z_3_76)))
 (= z_1_76 $x4514)))
(assert
 (= z_1_77 (not z_3_77)))
(assert
 (let (($x4524 (not z_3_78)))
 (= z_1_78 $x4524)))
(assert
 (let (($x4529 (not z_3_79)))
 (= z_1_79 $x4529)))
(assert
 (= z_1_80 (not z_3_80)))
(assert
 (let (($x4539 (not z_3_81)))
 (= z_1_81 $x4539)))
(assert
 (= z_1_82 (not z_3_82)))
(assert
 (= z_1_83 (not z_3_83)))
(assert
 (= z_1_84 (not z_3_84)))
(assert
 (= z_1_85 (not z_3_85)))
(assert
 (= z_1_86 (not z_3_86)))
(assert
 (= z_1_87 (not z_3_87)))
(assert
 (let (($x4574 (not z_3_88)))
 (= z_1_88 $x4574)))
(assert
 (let (($x4579 (not z_3_89)))
 (= z_1_89 $x4579)))
(assert
 (= z_1_90 (not z_3_90)))
(assert
 (= z_1_91 (not z_3_91)))
(assert
 (= z_1_92 (not z_3_92)))
(assert
 (= z_1_93 (not z_3_93)))
(assert
 (let (($x4604 (not z_3_94)))
 (= z_1_94 $x4604)))
(assert
 (let (($x4609 (not z_3_95)))
 (= z_1_95 $x4609)))
(assert
 (let (($x4614 (not z_3_96)))
 (= z_1_96 $x4614)))
(assert
 (let (($x4619 (not z_3_97)))
 (= z_1_97 $x4619)))
(assert
 (let (($x4624 (not z_3_98)))
 (= z_1_98 $x4624)))
(assert
 (= z_1_99 (not z_3_99)))
(assert
 (let (($x4634 (not z_3_100)))
 (= z_1_100 $x4634)))
(assert
 (let (($x4639 (not z_3_101)))
 (= z_1_101 $x4639)))
(assert
 (= z_1_102 (not z_3_102)))
(assert
 (let (($x4649 (not z_3_103)))
 (= z_1_103 $x4649)))
(assert
 (= z_1_104 (not z_3_104)))
(assert
 (= z_1_105 (not z_3_105)))
(assert
 (= z_1_106 (not z_3_106)))
(assert
 (let (($x4669 (not z_3_107)))
 (= z_1_107 $x4669)))
(assert
 (= z_1_108 (not z_3_108)))
(assert
 (= z_1_109 (not z_3_109)))
(assert
 (= z_1_110 (not z_3_110)))
(assert
 (= z_1_111 (not z_3_111)))
(assert
 (= z_1_112 (not z_3_112)))
(assert
 (let (($x4699 (not z_3_113)))
 (= z_1_113 $x4699)))
(assert
 (let (($x4704 (not z_3_114)))
 (= z_1_114 $x4704)))
(assert
 (= z_1_115 (not z_3_115)))
(assert
 (let (($x4714 (not z_3_116)))
 (= z_1_116 $x4714)))
(assert
 (let (($x4719 (not z_3_117)))
 (= z_1_117 $x4719)))
(assert
 (let (($x4724 (not z_3_118)))
 (= z_1_118 $x4724)))
(assert
 (= z_1_119 (not z_3_119)))
(assert
 (let (($x4734 (not z_3_120)))
 (= z_1_120 $x4734)))
(assert
 (let (($x4739 (not z_3_121)))
 (= z_1_121 $x4739)))
(assert
 (let (($x4744 (not z_3_122)))
 (= z_1_122 $x4744)))
(assert
 (= z_1_123 (not z_3_123)))
(assert
 (= z_1_124 (not z_3_124)))
(assert
 (and true true))
(assert
 (let (($x4134 (not z_3_0)))
 (=> x_3_p $x4134)))
(assert
 (=> x_3_p z_3_1))
(assert
 (=> x_3_p z_3_2))
(assert
 (let (($x4149 (not z_3_3)))
 (=> x_3_p $x4149)))
(assert
 (let (($x4154 (not z_3_4)))
 (=> x_3_p $x4154)))
(assert
 (let (($x4159 (not z_3_5)))
 (=> x_3_p $x4159)))
(assert
 (=> x_3_p z_3_6))
(assert
 (let (($x4169 (not z_3_7)))
 (=> x_3_p $x4169)))
(assert
 (let (($x4174 (not z_3_8)))
 (=> x_3_p $x4174)))
(assert
 (=> x_3_p z_3_9))
(assert
 (let (($x4184 (not z_3_10)))
 (=> x_3_p $x4184)))
(assert
 (let (($x4189 (not z_3_11)))
 (=> x_3_p $x4189)))
(assert
 (=> x_3_p z_3_12))
(assert
 (=> x_3_p z_3_13))
(assert
 (let (($x4204 (not z_3_14)))
 (=> x_3_p $x4204)))
(assert
 (=> x_3_p z_3_15))
(assert
 (let (($x4214 (not z_3_16)))
 (=> x_3_p $x4214)))
(assert
 (let (($x4219 (not z_3_17)))
 (=> x_3_p $x4219)))
(assert
 (let (($x4224 (not z_3_18)))
 (=> x_3_p $x4224)))
(assert
 (=> x_3_p z_3_19))
(assert
 (=> x_3_p z_3_20))
(assert
 (=> x_3_p z_3_21))
(assert
 (=> x_3_p z_3_22))
(assert
 (=> x_3_p z_3_23))
(assert
 (=> x_3_p z_3_24))
(assert
 (let (($x4259 (not z_3_25)))
 (=> x_3_p $x4259)))
(assert
 (let (($x4264 (not z_3_26)))
 (=> x_3_p $x4264)))
(assert
 (=> x_3_p z_3_27))
(assert
 (let (($x4274 (not z_3_28)))
 (=> x_3_p $x4274)))
(assert
 (let (($x4279 (not z_3_29)))
 (=> x_3_p $x4279)))
(assert
 (=> x_3_p z_3_30))
(assert
 (let (($x4289 (not z_3_31)))
 (=> x_3_p $x4289)))
(assert
 (let (($x4294 (not z_3_32)))
 (=> x_3_p $x4294)))
(assert
 (=> x_3_p z_3_33))
(assert
 (=> x_3_p z_3_34))
(assert
 (let (($x4309 (not z_3_35)))
 (=> x_3_p $x4309)))
(assert
 (=> x_3_p z_3_36))
(assert
 (=> x_3_p z_3_37))
(assert
 (=> x_3_p z_3_38))
(assert
 (let (($x4329 (not z_3_39)))
 (=> x_3_p $x4329)))
(assert
 (let (($x4334 (not z_3_40)))
 (=> x_3_p $x4334)))
(assert
 (let (($x4339 (not z_3_41)))
 (=> x_3_p $x4339)))
(assert
 (let (($x4344 (not z_3_42)))
 (=> x_3_p $x4344)))
(assert
 (let (($x4349 (not z_3_43)))
 (=> x_3_p $x4349)))
(assert
 (let (($x4354 (not z_3_44)))
 (=> x_3_p $x4354)))
(assert
 (let (($x4359 (not z_3_45)))
 (=> x_3_p $x4359)))
(assert
 (=> x_3_p z_3_46))
(assert
 (=> x_3_p z_3_47))
(assert
 (let (($x4374 (not z_3_48)))
 (=> x_3_p $x4374)))
(assert
 (=> x_3_p z_3_49))
(assert
 (=> x_3_p z_3_50))
(assert
 (let (($x4389 (not z_3_51)))
 (=> x_3_p $x4389)))
(assert
 (let (($x4394 (not z_3_52)))
 (=> x_3_p $x4394)))
(assert
 (=> x_3_p z_3_53))
(assert
 (let (($x4404 (not z_3_54)))
 (=> x_3_p $x4404)))
(assert
 (let (($x4409 (not z_3_55)))
 (=> x_3_p $x4409)))
(assert
 (let (($x4414 (not z_3_56)))
 (=> x_3_p $x4414)))
(assert
 (let (($x4419 (not z_3_57)))
 (=> x_3_p $x4419)))
(assert
 (let (($x4424 (not z_3_58)))
 (=> x_3_p $x4424)))
(assert
 (=> x_3_p z_3_59))
(assert
 (=> x_3_p z_3_60))
(assert
 (let (($x4439 (not z_3_61)))
 (=> x_3_p $x4439)))
(assert
 (=> x_3_p z_3_62))
(assert
 (let (($x4449 (not z_3_63)))
 (=> x_3_p $x4449)))
(assert
 (=> x_3_p z_3_64))
(assert
 (=> x_3_p z_3_65))
(assert
 (=> x_3_p z_3_66))
(assert
 (let (($x4469 (not z_3_67)))
 (=> x_3_p $x4469)))
(assert
 (let (($x4474 (not z_3_68)))
 (=> x_3_p $x4474)))
(assert
 (=> x_3_p z_3_69))
(assert
 (=> x_3_p z_3_70))
(assert
 (=> x_3_p z_3_71))
(assert
 (let (($x4494 (not z_3_72)))
 (=> x_3_p $x4494)))
(assert
 (let (($x4499 (not z_3_73)))
 (=> x_3_p $x4499)))
(assert
 (=> x_3_p z_3_74))
(assert
 (=> x_3_p z_3_75))
(assert
 (let (($x4514 (not z_3_76)))
 (=> x_3_p $x4514)))
(assert
 (=> x_3_p z_3_77))
(assert
 (let (($x4524 (not z_3_78)))
 (=> x_3_p $x4524)))
(assert
 (let (($x4529 (not z_3_79)))
 (=> x_3_p $x4529)))
(assert
 (=> x_3_p z_3_80))
(assert
 (let (($x4539 (not z_3_81)))
 (=> x_3_p $x4539)))
(assert
 (=> x_3_p z_3_82))
(assert
 (=> x_3_p z_3_83))
(assert
 (=> x_3_p z_3_84))
(assert
 (=> x_3_p z_3_85))
(assert
 (=> x_3_p z_3_86))
(assert
 (=> x_3_p z_3_87))
(assert
 (let (($x4574 (not z_3_88)))
 (=> x_3_p $x4574)))
(assert
 (let (($x4579 (not z_3_89)))
 (=> x_3_p $x4579)))
(assert
 (=> x_3_p z_3_90))
(assert
 (=> x_3_p z_3_91))
(assert
 (=> x_3_p z_3_92))
(assert
 (=> x_3_p z_3_93))
(assert
 (let (($x4604 (not z_3_94)))
 (=> x_3_p $x4604)))
(assert
 (let (($x4609 (not z_3_95)))
 (=> x_3_p $x4609)))
(assert
 (let (($x4614 (not z_3_96)))
 (=> x_3_p $x4614)))
(assert
 (let (($x4619 (not z_3_97)))
 (=> x_3_p $x4619)))
(assert
 (let (($x4624 (not z_3_98)))
 (=> x_3_p $x4624)))
(assert
 (=> x_3_p z_3_99))
(assert
 (let (($x4634 (not z_3_100)))
 (=> x_3_p $x4634)))
(assert
 (let (($x4639 (not z_3_101)))
 (=> x_3_p $x4639)))
(assert
 (=> x_3_p z_3_102))
(assert
 (let (($x4649 (not z_3_103)))
 (=> x_3_p $x4649)))
(assert
 (=> x_3_p z_3_104))
(assert
 (=> x_3_p z_3_105))
(assert
 (=> x_3_p z_3_106))
(assert
 (let (($x4669 (not z_3_107)))
 (=> x_3_p $x4669)))
(assert
 (=> x_3_p z_3_108))
(assert
 (=> x_3_p z_3_109))
(assert
 (=> x_3_p z_3_110))
(assert
 (=> x_3_p z_3_111))
(assert
 (=> x_3_p z_3_112))
(assert
 (let (($x4699 (not z_3_113)))
 (=> x_3_p $x4699)))
(assert
 (let (($x4704 (not z_3_114)))
 (=> x_3_p $x4704)))
(assert
 (=> x_3_p z_3_115))
(assert
 (let (($x4714 (not z_3_116)))
 (=> x_3_p $x4714)))
(assert
 (let (($x4719 (not z_3_117)))
 (=> x_3_p $x4719)))
(assert
 (let (($x4724 (not z_3_118)))
 (=> x_3_p $x4724)))
(assert
 (=> x_3_p z_3_119))
(assert
 (let (($x4734 (not z_3_120)))
 (=> x_3_p $x4734)))
(assert
 (let (($x4739 (not z_3_121)))
 (=> x_3_p $x4739)))
(assert
 (let (($x4744 (not z_3_122)))
 (=> x_3_p $x4744)))
(assert
 (=> x_3_p z_3_123))
(assert
 (=> x_3_p z_3_124))
(assert
 (or x_3_p))
(assert
 (let (($x4776 (not x_3_->)))
 (let (($x4774 (not x_3_U)))
 (let (($x4772 (not x_3_v)))
 (let (($x4770 (not x_3_&)))
 (let (($x4768 (not x_3_X)))
 (let (($x4766 (not x_3_!)))
 (let (($x4764 (not x_3_F)))
 (let (($x4762 (not x_3_G)))
 (and $x4762 $x4764 $x4766 $x4768 $x4770 $x4772 $x4774 $x4776))))))))))
(check-sat)

